
Log started (V20.1.0.0) Tue Aug  9 10:31:13 2022


Problem 'pp.lp' read.
Read time = 0.00 sec. (0.00 ticks)
Version identifier: 20.1.0.0 | 2020-11-10 | 9bedb6d68
Tried aggregator 1 time.
No LP presolve or aggregator reductions.
Presolve time = 0.00 sec. (0.00 ticks)

Iteration log . . .
Iteration:     1   Dual infeasibility =             0.000000
Iteration:     2   Dual objective     =            10.000000

Dual simplex - Optimal:  Objective =  8.0000000000e+00
Solution time =    0.00 sec.  Iterations = 3 (1)
Deterministic time = 0.00 ticks  (4.63 ticks/sec)


Variable Name           Solution Value
x1                            5.000000
x2                            3.000000

Log started (V20.1.0.0) Tue Aug  9 10:33:00 2022


Problem 'pp.lp' read.
Read time = 0.00 sec. (0.00 ticks)
Version identifier: 20.1.0.0 | 2020-11-10 | 9bedb6d68
Tried aggregator 1 time.
No LP presolve or aggregator reductions.
Presolve time = 0.00 sec. (0.00 ticks)

Iteration log . . .
Iteration:     1   Dual infeasibility =             0.000000
Iteration:     2   Dual objective     =            22.000000

Dual simplex - Optimal:  Objective =  1.8000000000e+01
Solution time =    0.00 sec.  Iterations = 3 (1)
Deterministic time = 0.00 ticks  (4.63 ticks/sec)


Variable Name           Solution Value
x1                            5.000000
x2                            3.000000
